! TPSS def2-SVP  opt
* xyz 0 1BITCEM13.xyz