! TPSS def2-SVP  opt

* xyzfile 0 1 BITCEM13db.xyz
