! TPSS def2-SVP  opt
* xyz 0 1FOVVIV01.xyz