! TPSS def2-SVP  opt
* xyz 0 1LUSREW.xyz