! TPSS def2-SVP  opt
* xyz 0 1NOMBEA01.xyz