! TPSS def2-SVP  opt

* xyzfile 0 1 NOMBEA01db.xyz
