! TPSS def2-SVP  opt
* xyz 0 1VISDIK.xyz